NAME: instance_740
TYPE: TSP
DIMENSION: 20
EDGE_WEIGHT_TYPE: EUC_2D
NODE_COORD_SECTION
0 17.72 36.70
1 69.88 61.76
2 70.47 89.14
3 78.40 73.39
4 77.33 23.67
5 48.21 2.25
6 19.03 87.50
7 0.97 0.58
8 13.36 9.07
9 24.93 20.80
10 95.01 9.22
11 39.40 64.58
12 14.79 57.48
13 19.55 90.84
14 86.37 11.26
15 16.06 44.63
16 7.65 65.25
17 61.32 75.42
18 30.87 45.59
19 90.60 81.34
EOF
